letting initialStacks = [10, 11, 29, 15, 17, 41, 24, 12, 9, 43, 27, 31, 18, 22, 49, 14, 19, 26, 4, 23, 13, 40, 45, 6, 46, 5, 34, 38, 44, 3, 39, 2, 51, 21, 30, 28, 1, 25, 35, 48, 20, 7, 37, 8, 32, 33, 42, 16, 50, 47, 36]
